############################### SIMULATION SETTINGS ###################################################

atom_style sphere 
atom_modify map array 
comm_modify vel yes
units si
newton off
neighbor      6 bin
neigh_modify  delay 0
timestep 0.001

######################### SIMULATION BOUNDING BOX, INTEGRATION, AND, GRAVITY ###########################

boundary f f f
region simBox block -100 100 -100 100 -100 100
create_box 2 simBox

########################### PARTICLE MATERIAL PROPERTIES AND FORCE MODEL ###############################

pair_style granular
# E, nu, Y, gamma, psi_b, CoR
pair_coeff * * mdr 1e6 0.3 8e4 50 0.08 1.0 tangential linear_nohistory 0.0 0.0

##################################### INSERT PARTICLES ####################################################

create_atoms 1 single 0 0 0 units box
group centerAtom id 1
variable d equal 2
variable den equal 1000
set atom 1 diameter ${d} density ${den} 

create_atoms 1 single -2 0 0 units box
group xnegAtom id 2
set atom 2 diameter ${d} density ${den} 

create_atoms 1 single 2 0 0 units box
group xposAtom id 3
set atom 3 diameter ${d} density ${den} 

######################################## SCREEN OUTPUT  ####################################################

compute       1 all erotate/sphere
thermo_style  custom dt step atoms ke c_1 vol 
thermo        1000
thermo_modify lost ignore norm no

##################################### DEFINE RUN CONTROL VARIBLES  #############################################

variable mydt equal dt
variable mystep equal step
variable mytime equal ${mydt}*v_mystep
variable freq equal 1.0/(20.0*${mydt})
variable dispMax equal 0.02 #${d}/4
variable disp equal ${dispMax}*sin(${freq}*v_mytime)
variable vel equal ${dispMax}*${freq}*cos(${freq}*v_mytime)
variable vel_neg equal -v_vel
variable zeroDisp equal 0.0
variable disp_neg equal -v_disp

fix cAtom centerAtom move variable v_zeroDisp NULL NULL NULL NULL NULL units box 

##################################### SET UP DUMP OUTPUTS  ####################################################

dump dumpParticles all vtk 1 post/particles_*.vtk x y z fx fy fz 
variable x3 equal x[3]
variable x1 equal x[1]
variable del equal ${d}-(x[3]-x[1])
variable fx3 equal fx[3]
fix log all print 1 "${del},${fx3}" file stickyParticleSandwich.csv title "del,fx3" screen no

######################################### BEGIN RUN  ##########################################################

fix xposAtom_move xposAtom move variable v_disp_neg NULL NULL NULL NULL NULL units box
fix xnegAtom_move xnegAtom move variable v_disp NULL NULL NULL NULL NULL units box

run 100 upto